c 3 2 ?
p cnf 4 10
-2,3,0
-1,4,0
-2,4,0
-4,-2,0
-4,-1,0
1,1,0
4,4,0
-4,-3,0
-1,-4,0
3,3,0
c 4 2 ?
p cnf 4 10
2,1,0
-4,-1,0
1,-3,0
2,-3,0
1,-2,0
3,-2,0
3,-3,0
3,-2,0
2,-3,0
-3,3,0
c 5 2 ?
p cnf 4 10
3,1,0
-2,-2,0
3,2,0
-1,-1,0
4,2,0
-2,2,0
-2,-1,0
-2,-2,0
3,-2,0
-2,4,0
c 6 20 ?
p cnf 20 100
-1,2,0
-2,3,0
-3,4,0
-4,5,0
-5,6,0
-6,7,0
-7,8,0
-8,9,0
-9,10,0
-10,11,0
-11,12,0
-12,13,0
-13,14,0
-14,15,0
-15,16,0
-16,17,0
-17,18,0
-18,19,0
-19,20,0
-20,0
1,2,0
2,3,0
3,4,0
4,5,0
5,6,0
6,7,0
7,8,0
8,9,0
9,10,0
10,11,0
11,12,0
12,13,0
13,14,0
14,15,0
15,16,0
16,17,0
17,18,0
18,19,0
19,20,0
20,1,0
1,-6,0
2,-7,0
3,-8,0
4,-9,0
5,-10,0
6,-11,0
7,-12,0
8,-13,0
9,-14,0
10,-15,0
11,-16,0
12,-17,0
13,-18,0
14,-19,0
15,-20,0
16,-1,0
17,-2,0
18,-3,0
19,-4,0
20,-5,0
1,-6,0
2,-7,0
3,-8,0
4,-9,0
5,-10,0
6,-11,0
7,-12,0
8,-13,0
9,-14,0
10,-15,0
11,-16,0
12,-17,0
13,-18,0
14,-19,0
15,-20,0
16,-1,0
17,-2,0
18,-3,0
19,-4,0
20,-5,0
1,-6,0
2,-7,0
3,-8,0
4,-9,0
5,-10,0
6,-11,0
7,-12,0
8,-13,0
9,-14,0
10,-15,0
11,-16,0
12,-17,0
13,-18,0
14,-19,0
15,-20,0
16,-1,0
17,-2,0
18,-3,0
19,-4,0
20,-5,0
c 26 5 U
p cnf 5 13
1 0
-1 0
2 -3 0
4 5 -2 0
-3 1 0
-4 2 -5 0
3 -1 0
-2 4 0
5 -3 1 0
-5 2 0
4 -1 -3 0
-4 3 2 0
1 -2 5 0
c 27 10 U
p cnf 10 25
1 0
-1 0
2 -4 6 0
-3 5 1 0
7 -2 -6 0
-5 3 8 0
4 -7 2 0
-6 1 -8 0
3 -9 5 0
-4 2 7 0
8 -3 -10 0
-7 6 4 0
9 -5 1 0
-8 2 -6 0
10 -4 3 0
-9 7 -1 0
5 -10 8 0
-2 3 -7 0
6 -1 9 0
-10 4 -8 0
7 -3 5 0
-6 9 2 0
8 -4 -1 0
-5 10 3 0
1 -7 6 0
c 28 15 U
p cnf 15 38
1 0
-1 0
2 -5 7 0
-3 6 -8 0
4 -2 9 0
-7 1 -5 0
8 -6 3 0
-4 7 -9 0
5 -10 2 0
-6 11 -3 0
9 -4 8 0
-2 12 6 0
10 -7 5 0
-9 3 -11 0
12 -2 4 0
-10 8 -6 0
11 -5 9 0
-7 12 -1 0
13 -3 10 0
-8 4 -12 0
14 -6 2 0
-11 1 -5 0
15 -9 7 0
-13 6 3 0
14 -2 8 0
-10 12 -4 0
9 -15 5 0
-7 11 -3 0
13 -4 6 0
-9 2 -14 0
15 -8 1 0
-12 3 10 0
6 -13 7 0
-5 11 -2 0
4 -15 9 0
-8 14 -1 0
3 -10 12 0
-6 5 -9 0
c 29 20 U
p cnf 20 50
1 0
-1 0
2 -6 9 0
-3 7 -12 0
4 -2 10 0
-8 1 -5 0
11 -6 3 0
-4 9 -7 0
5 -13 2 0
-10 14 -3 0
12 -9 4 0
-2 15 6 0
13 -8 5 0
-11 3 -16 0
15 -4 7 0
-9 6 -2 0
16 -1 12 0
-7 10 -5 0
8 -3 14 0
-6 11 -4 0
17 -9 2 0
-13 5 -10 0
18 -7 3 0
-12 6 -15 0
19 -14 8 0
-11 2 -7 0
20 -5 13 0
-16 4 9 0
14 -3 6 0
-15 8 -12 0
17 -1 10 0
-18 7 -4 0
11 -19 5 0
-14 9 -2 0
6 -20 3 0
-7 13 -1 0
10 -16 8 0
-5 12 -9 0
4 -18 6 0
-8 17 -3 0
15 -11 7 0
-6 14 -5 0
2 -19 9 0
-10 20 -4 0
13 -8 1 0
-12 7 -6 0
3 -17 5 0
-9 18 -2 0
11 -14 8 0
-4 16 -7 0
c 26 5 S
p cnf 5 13
1 0
-2 0
3 0
-4 0
5 0
1 -3 4 0
-2 5 3 0
3 -4 1 0
-5 2 4 0
1 2 -3 0
-4 -2 5 0
3 -1 0
-2 4 5 0
c 27 10 S
p cnf 10 25
1 0
-2 0
3 0
-4 0
5 0
-6 0
7 0
-8 0
9 0
-10 0
1 -3 4 0
-2 5 6 0
7 -1 -8 0
-4 9 -10 0
3 -6 1 0
5 -8 7 0
-10 9 1 0
-2 4 9 0
1 4 -5 0
-2 3 6 0
7 -8 2 0
3 -6 10 0
-1 9 5 0
-4 7 3 0
5 -2 1 0
c 28 15 S
p cnf 15 38
1 0
-2 0
3 0
-4 0
5 0
-6 0
7 0
-8 0
9 0
-10 0
11 0
-12 0
13 0
-14 0
15 0
1 4 -5 0
-2 7 3 0
5 -6 9 0
-8 11 2 0
7 -1 12 0
-10 13 4 0
9 -3 -14 0
-6 15 5 0
11 -2 8 0
-12 1 7 0
13 -4 10 0
-14 9 3 0
15 -8 2 0
-5 11 6 0
1 -13 4 0
-2 7 -9 0
3 12 -6 0
-11 8 15 0
5 -14 10 0
-3 13 2 0
9 -1 7 0
-4 12 11 0
6 -10 15 0
-8 5 13 0
c 29 20 S
p cnf 20 50
1 0
-2 0
3 0
-4 0
5 0
-6 0
7 0
-8 0
9 0
-10 0
11 0
-12 0
13 0
-14 0
15 0
-16 0
17 0
-18 0
19 0
-20 0
1 -3 4 0
-2 5 6 0
7 -1 8 0
-4 9 -10 0
3 -6 11 0
5 -8 7 0
-10 9 1 0
-2 4 13 0
15 -6 3 0
-8 11 2 0
9 -14 5 0
-12 7 16 0
17 -1 10 0
-18 13 4 0
19 -8 2 0
-20 9 15 0
11 -3 -16 0
-14 5 17 0
13 -2 19 0
-6 12 7 0
1 -10 9 0
-4 15 8 0
3 -18 11 0
-14 2 16 0
5 -12 13 0
-8 19 4 0
7 -20 2 0
-6 15 10 0
17 -9 3 0
-16 11 14 0
